
Log started (V12.6.1.0) Tue Feb 06 16:56:52 2018

New value for time limit in seconds: 10800
New value for default parallel thread count: 1
No problem exists.
No problem exists.
No file written.

Log started (V12.6.1.0) Tue Feb 06 16:58:24 2018

New value for time limit in seconds: 10800
New value for default parallel thread count: 1
Tried aggregator 3 times.
MIP Presolve eliminated 18122 rows and 1298 columns.
MIP Presolve modified 163 coefficients.
Aggregator did 31 substitutions.
Reduced MIP has 3765 rows, 17568 columns, and 106682 nonzeros.
Reduced MIP has 17370 binaries, 198 generals, 0 SOSs, and 0 indicators.
Presolve time = 0.64 sec. (108.33 ticks)
Probing time = 0.06 sec. (6.81 ticks)
Tried aggregator 1 time.
Reduced MIP has 3765 rows, 17568 columns, and 106682 nonzeros.
Reduced MIP has 17370 binaries, 198 generals, 0 SOSs, and 0 indicators.
Presolve time = 0.28 sec. (47.40 ticks)
Probing time = 0.03 sec. (5.90 ticks)
Clique table members: 46947.
MIP emphasis: balance optimality and feasibility.
MIP search method: dynamic search.
Parallel mode: none, using 1 thread.
Root relaxation solution time = 4.14 sec. (1139.17 ticks)

        Nodes                                         Cuts/
   Node  Left     Objective  IInf  Best Integer    Best Bound    ItCnt     Gap

      0     0       33.0000   786                     33.0000     4981         
      0     0       47.2222   467                   Fract: 15     7156         
      0     0       59.9596   483                    Cuts: 81    10540         
      0     0       60.0278   601                    Cuts: 42    12075         
      0     0       60.0278   550                    Cuts: 31    15475         
      0     0       60.0278   571                    Cuts: 36    17463         
*     0+    0                           97.0000       60.0278            38.12%
*     0+    0                           95.0000       60.0278            36.81%
*     0+    0                           93.0000       60.0278            35.45%
      0     2       60.0278   217       93.0000       60.0278    17463   35.45%
Elapsed time = 66.61 sec. (19141.53 ticks, tree = 0.00 MB, solutions = 3)
      1     3       60.0278   333       93.0000       60.0278    20257   35.45%
      2     4       60.0278   340       93.0000       60.0278    21628   35.45%
      3     5       60.0278   331       93.0000       60.0278    23687   35.45%
      4     6       60.0278   383       93.0000       60.0278    24607   35.45%
      5     7       60.0278   312       93.0000       60.0278    25762   35.45%
      7     9       60.0278   648       93.0000       60.0278    28245   35.45%
      9    11       60.0278   295       93.0000       60.0278    29401   35.45%
     11    13       60.2096   295       93.0000       60.0278    32434   35.45%
     15    17       60.5278   266       93.0000       60.0278    37977   35.45%
     20    22       60.0278   265       93.0000       60.0278    43209   35.45%
Elapsed time = 84.81 sec. (25608.37 ticks, tree = 0.26 MB, solutions = 3)
     31    33       60.0278   232       93.0000       60.0278    52599   35.45%
     39    41       60.1667   183       93.0000       60.0278    64775   35.45%
     43    45       60.0278   217       93.0000       60.0278    70877   35.45%
     50    52       60.0278   317       93.0000       60.0278    83760   35.45%
     53    55       60.0611   296       93.0000       60.0278    87340   35.45%
     60    62       60.0722   296       93.0000       60.0278   105142   35.45%
     72    74       61.3806   366       93.0000       60.0278   121807   35.45%
     80    82       61.3259   319       93.0000       60.0278   127197   35.45%
     91    93       61.6544   361       93.0000       60.0278   133830   35.45%
    105   107       68.2024   345       93.0000       60.0278   143048   35.45%
Elapsed time = 117.77 sec. (35761.25 ticks, tree = 1.25 MB, solutions = 3)
    121   123       77.5292   324       93.0000       60.0278   153421   35.45%
    136   138       77.6736   291       93.0000       60.0278   163478   35.45%
    151   153       82.5750   295       93.0000       60.0278   176570   35.45%
    167   169       84.1417   244       93.0000       60.0278   185436   35.45%
    186   188       84.8083   268       93.0000       60.0278   193699   35.45%
    212   206       60.0278   261       93.0000       60.0278   204598   35.45%
    228   222       78.3750   226       93.0000       60.0278   221566   35.45%
    244   238       83.5556   145       93.0000       60.0278   234095   35.45%
    254   248       84.4556   160       93.0000       60.0278   254886   35.45%
    265   259       84.7778    96       93.0000       60.0278   271276   35.45%
Elapsed time = 145.89 sec. (45741.15 ticks, tree = 3.00 MB, solutions = 3)
    274   266       84.7778   106       93.0000       60.0278   282090   35.45%
    280   272       85.1944   151       93.0000       60.0278   289241   35.45%
    299   283       66.9167   251       93.0000       60.0278   292263   35.45%
    307   291       82.4583   216       93.0000       60.0278   293944   35.45%
    312   296       82.4583   232       93.0000       60.0278   296526   35.45%
    340   320       91.1667   151       93.0000       60.0278   310672   35.45%
    360   334       89.1667   174       93.0000       60.0278   326229   35.45%
    372   346       89.3333   110       93.0000       60.0278   337726   35.45%
    384   358       91.5111   121       93.0000       60.0278   348053   35.45%
    393   364       77.0000   210       93.0000       60.0278   351030   35.45%
Elapsed time = 185.36 sec. (55914.64 ticks, tree = 6.05 MB, solutions = 3)
    400   371       89.0000    94       93.0000       60.0278   355036   35.45%
    404   373       89.0000   368       93.0000       60.0278   360337   35.45%
    408   377       89.0000   320       93.0000       60.0278   365326   35.45%
    409   378       89.0000   329       93.0000       60.0278   370632   35.45%
    422   391       89.4667   249       93.0000       60.0278   378497   35.45%
    436   405       89.7619   209       93.0000       60.0278   387147   35.45%
    457   420       72.8125   261       93.0000       60.0278   403215   35.45%
    468   431       90.0000   101       93.0000       60.0278   411962   35.45%
    476   439       90.0000   117       93.0000       60.0278   420108   35.45%
*   478+  401                           91.0000       60.0278            34.04%
    478   403       60.0278   288       91.0000       60.0278   420892   34.04%
Elapsed time = 230.00 sec. (69259.32 ticks, tree = 6.86 MB, solutions = 4)
    479   404       88.8339    82       91.0000       88.8939   451524    2.31%
    481   406       89.0000   269       91.0000       89.0000   456214    2.20%
    483   406       89.0000   355       91.0000       89.0000   459401    2.20%
    485   408       89.0000   372       91.0000       89.0000   460412    2.20%
    488   410       89.0000   555       91.0000       89.0000   463742    2.20%
    491   411       89.0000   245       91.0000       89.0000   466326    2.20%
    495   413       89.0000   371       91.0000       89.0000   476201    2.20%
    498   415       89.0000   160       91.0000       89.0000   477675    2.20%
    502   418       89.0000    90       91.0000       89.0000   479499    2.20%
    509   420       90.0000   239       91.0000       89.0000   480677    2.20%
Elapsed time = 400.38 sec. (120114.06 ticks, tree = 6.84 MB, solutions = 4)
    516   394       89.0000    63       91.0000       89.0000   483682    2.20%
    520   397       89.0000    46       91.0000       89.0000   489591    2.20%
    528   399       89.0000    49       91.0000       89.0000   490928    2.20%
    535   403       89.0000    53       91.0000       89.0000   492794    2.20%
    539   406       89.0000    44       91.0000       89.0000   494870    2.20%
    544   408       89.0000    78       91.0000       89.0000   496660    2.20%
    548   410       89.2000    79       91.0000       89.0000   499648    2.20%
    556   407       90.0000    61       91.0000       89.0000   506905    2.20%
    560   410       90.0000   100       91.0000       89.0000   512416    2.20%
    566   412       90.0000    79       91.0000       89.0000   515285    2.20%
Elapsed time = 438.33 sec. (130727.89 ticks, tree = 6.17 MB, solutions = 4)
    571   409        cutoff             91.0000       89.0000   521613    2.20%
    579   412       90.0000    64       91.0000       89.0000   529774    2.20%
    587   407       90.0000   133       91.0000       89.0000   531290    2.20%
    600   393       89.0000    61       91.0000       89.0000   532386    2.20%
    606   396       89.0000    52       91.0000       89.0000   533789    2.20%
    610   400       89.0000   106       91.0000       89.0000   540101    2.20%
    614   401       89.0000   128       91.0000       89.0000   544664    2.20%
    620   400       90.0000    81       91.0000       89.0000   547192    2.20%
    626   399       90.0000    97       91.0000       89.0000   551738    2.20%
    634   405       90.0000    57       91.0000       89.0000   557006    2.20%
Elapsed time = 480.59 sec. (141722.76 ticks, tree = 5.56 MB, solutions = 4)
    642   401       90.0000    48       91.0000       89.0000   561744    2.20%
    650   407       90.0000    46       91.0000       89.0000   568118    2.20%
    663   402       90.0000    18       91.0000       89.0000   574329    2.20%
    680   398       89.0000    69       91.0000       89.0000   582400    2.20%
    684   399       90.0000    90       91.0000       89.0000   587957    2.20%
    686   401       90.0000   122       91.0000       89.0000   598718    2.20%
    687   401       90.0000   486       91.0000       89.0000   600212    2.20%
    689   401       90.0000    79       91.0000       89.0000   601917    2.20%
    693   403       90.0000    38       91.0000       89.0000   604063    2.20%
    697   406       90.0000    41       91.0000       89.0000   605072    2.20%
Elapsed time = 525.31 sec. (154184.82 ticks, tree = 5.12 MB, solutions = 4)
    706   407    infeasible             91.0000       89.0000   606124    2.20%
    714   406    infeasible             91.0000       89.0000   607414    2.20%
*   719   216      integral     0       90.0000       89.0000   608443    1.11%
*   719   164      integral     0       90.0000       89.0000   608443    1.11%
    729   151       89.0000    30       90.0000       89.0000   610247    1.11%
    736   144       89.0000    50       90.0000       89.0000   612470    1.11%
    743   138       89.0000   106       90.0000       89.0000   615420    1.11%
    755   126       89.0000   129       90.0000       89.0000   616969    1.11%
    759   122       89.0000    47       90.0000       89.0000   617136    1.11%
    769   118       89.0000    88       90.0000       89.0000   618917    1.11%
    796   107    infeasible             90.0000       89.0000   627142    1.11%
Elapsed time = 582.66 sec. (170072.41 ticks, tree = 1.07 MB, solutions = 5)
    821    99       89.0000    65       90.0000       89.0000   633370    1.11%
    839    93    infeasible             90.0000       89.0000   639940    1.11%
    870    92       89.0000    83       90.0000       89.0000   647978    1.11%
    917    84       89.0000    53       90.0000       89.0000   654473    1.11%
    962    80       89.0000    50       90.0000       89.0000   663098    1.11%
   1010    69       89.0000    59       90.0000       89.0000   670222    1.11%
   1068    60       89.0000   129       90.0000       89.0000   677312    1.11%
   1116    49       89.0000   145       90.0000       89.0000   684510    1.11%
   1140    48       89.0000   163       90.0000       89.0000   689186    1.11%
   1179    45       89.0000   203       90.0000       89.0000   695287    1.11%
Elapsed time = 701.89 sec. (209156.11 ticks, tree = 0.29 MB, solutions = 5)
   1222    31       89.0000   237       90.0000       89.0000   701277    1.11%
   1263    18       89.0000   217       90.0000       89.0000   706758    1.11%
   1286    13       89.0000   233       90.0000       89.0000   712439    1.11%
   1293    14       89.0000   230       90.0000       89.0000   721328    1.11%
   1295    16       89.0000   539       90.0000       89.0000   730814    1.11%
   1309    15       89.0000   229       90.0000       89.0000   734428    1.11%
   1339    11       89.0000   279       90.0000       89.0000   739235    1.11%

Clique cuts applied:  119
Mixed integer rounding cuts applied:  3
Zero-half cuts applied:  13
Gomory fractional cuts applied:  49

Root node processing (before b&c):
  Real time             =   66.06 sec. (18818.33 ticks)
Sequential b&c:
  Real time             =  750.20 sec. (220900.25 ticks)
                          ------------
Total (root+branch&cut) =  816.26 sec. (239718.58 ticks)

Solution pool: 5 solutions saved.

MIP - Integer optimal solution:  Objective = 9.0000000000e+001
Solution time =  816.76 sec.  Iterations = 741088  Nodes = 1359
Deterministic time = 239718.64 ticks  (293.50 ticks/sec)


Incumbent solution written to file 'Casey-1o2.sol'.
